NAME 
ROWS
 N  OBJ
 L  R0      
 L  R1      
 E  R2      
 E  R3      
 E  R4      
 E  R5      
 E  R6      
 E  R7      
 E  R8      
 E  R9      
 E  R10     
 E  R11     
COLUMNS
    MARKER    'MARKER'                 'INTORG'
    I0(6)     OBJ       75
    I0(6)     R0        -48
    I0(6)     R1        -54
    I0(6)     R3        16
    I0(6)     R4        12
    I0(6)     R5        10
    I0(6)     R11       1
    I1(6)     OBJ       131
    I1(6)     R0        137
    I1(6)     R1        93
    I1(6)     R2        19
    I1(6)     R3        14
    I1(6)     R5        2
    I1(6)     R11       1
    I2(6)     OBJ       -7
    I2(6)     R0        -77
    I2(6)     R1        -7
    I2(6)     R3        7
    I2(6)     R4        10
    I2(6)     R5        -1
    I2(6)     R11       1
    I3(6)     OBJ       181
    I3(6)     R0        -65
    I3(6)     R1        -149
    I3(6)     R3        3
    I3(6)     R4        19
    I3(6)     R6        6
    I3(6)     R11       1
    I4(7)     OBJ       166
    I4(7)     R0        -145
    I4(7)     R1        -149
    I4(7)     R2        6
    I4(7)     R3        15
    I4(7)     R5        18
    I4(7)     R6        7
    I4(7)     R11       1
    MARKER    'MARKER'                 'INTEND'
    C5(6)     OBJ       -8
    C5(6)     R0        7
    C5(6)     R1        -6
    C5(6)     R7        7
    C5(6)     R8        3
    C5(6)     R9        16
    C5(6)     R10       15
    C6(6)     OBJ       -1
    C6(6)     R0        -3
    C6(6)     R5        8
    C6(6)     R6        18
    C6(6)     R8        14
    C6(6)     R9        6
    C6(6)     R10       19
    C7(10)    OBJ       5
    C7(10)    R0        4
    C7(10)    R1        7
    C7(10)    R2        11
    C7(10)    R3        8
    C7(10)    R5        10
    C7(10)    R6        9
    C7(10)    R7        8
    C7(10)    R8        13
    C7(10)    R9        18
    C7(10)    R10       12
    C8(8)     OBJ       9
    C8(8)     R0        5
    C8(8)     R1        -10
    C8(8)     R4        10
    C8(8)     R5        10
    C8(8)     R6        19
    C8(8)     R7        7
    C8(8)     R8        13
    C8(8)     R9        17
    C9(8)     OBJ       6
    C9(8)     R0        8
    C9(8)     R1        6
    C9(8)     R3        17
    C9(8)     R4        13
    C9(8)     R6        8
    C9(8)     R8        4
    C9(8)     R9        1
    C9(8)     R10       1
    C10(1)    R2        1
    C11(1)    R3        1
    C12(1)    R4        1
    C13(1)    R5        1
    C14(1)    R6        1
    C15(1)    R7        1
    C16(1)    R8        1
    C17(1)    R9        1
    C18(1)    R10       1
    C19(1)    R11       1
RHS
    RHS1      R0        -54.25
    RHS1      R1        -26.5
    RHS1      R2        66
    RHS1      R3        60
    RHS1      R4        58
    RHS1      R5        80
    RHS1      R6        83
    RHS1      R7        92
    RHS1      R8        54
    RHS1      R9        52
    RHS1      R10       60
    RHS1      R11       1
BOUNDS
 UP BND1      I0(6)     2
 UP BND1      I1(6)     2
 UP BND1      I2(6)     2
 UP BND1      I3(6)     2
 UP BND1      I4(7)     2
ENDATA
